webassembly/ejemplos_dzn/folder10_json_2.dzn
TERM = { '.', 's(2)', 'in_1', 'local_0', 'local_1', 's(1)', 's(3)', 'in_0'};
null = '.';
s = 10;
n = 7;
ndeps = 1;
max_registers_sz = 5;
NR = 2;
registers = [|'local_0', 's(3)', |'local_1', 's(1)'|];
dependencies = [|'call[function_index(0)]_3', 'i32.load16_u_4'|];
GET_ENUM = { GET1, GET2, GET3, GET4, GET5, GET6, GET7};
SET_ENUM = { SET1, SET2, SET3, SET4, SET5, SET6, SET7};
TEE_ENUM = { TEE1, TEE2, TEE3, TEE4, TEE5, TEE6, TEE7};
N = 2;
OP = { 'call[function_index(0)]_3', 'i32.load16_u_4' };
in_ops = [0, 1 ];
out_ops = [2, 1 ];
in1 = ['.', 's(2)' ];
in2 = ['.', '.' ];
in3 = ['.', '.' ];
out1 = ['s(2)', 's(3)' ];
out2 = ['s(1)', '.' ];
out3 = ['.', '.' ];
comm = [false, false ];
gas = [1, 1 ];
sz = [1, 1 ];
stor = [true, false ];
lb = [ 1, 1 ];
ub = [ 10, 10 ];
startstack = [ 'in_0', 'in_1', null, null, null, null, null ];
endstack = [ null, null, null, null, null, null, null ];
